scripts/logs/SAT-p4/bwp_7_3_1.SAT.log.out
dg jun 3 19:24:21 CEST 2018
    [1;34mTry max length:[0m 999999
    [1;34m    At iteration:[0m 0
        lingeling found a solution in .072 ms

      | W
    L | 0 1 2 3 4 5 6 
    ------------------
    0 | . . . . . . . 
    1 | . 2 2 . . . . 
    2 | . . . . . . . 
    3 | . . 3 . 1 1 . 
    4 | . . 3 . . . . 
    5 | . . . . . . . 
    
    Boxes' corners:      (w,l)
        Box 1 is at 
            top left     (4,3)
            bottom right (5,3)
    
        Box 2 is at 
            top left     (1,1)
            bottom right (2,1)
    
        Box 3 is at 
            top left     (2,3)
            bottom right (2,4)
    
        Roll length used: 5

    [1;34mTry max length:[0m 4
    [1;34m    At iteration:[0m 1
        lingeling found a solution in .037 ms

      | W
    L | 0 1 2 3 4 5 6 
    ------------------
    0 | . . . . . 2 . 
    1 | . 1 3 . . 2 . 
    2 | . 1 3 . . . . 
    3 | . . . . . . . 
    
    Boxes' corners:      (w,l)
        Box 1 is at 
            top left     (1,1)
            bottom right (1,2)
    
        Box 2 is at 
            top left     (5,0)
            bottom right (5,1)
    
        Box 3 is at 
            top left     (2,1)
            bottom right (2,2)
    
        Roll length used: 3

    [1;34mTry max length:[0m 2
    [1;34m    At iteration:[0m 2
        lingeling found a solution in .020 ms

      | W
    L | 0 1 2 3 4 5 6 
    ------------------
    0 | . 2 . . . . 1 
    1 | . 2 . . 3 3 1 
    
    Boxes' corners:      (w,l)
        Box 1 is at 
            top left     (6,0)
            bottom right (6,1)
    
        Box 2 is at 
            top left     (1,0)
            bottom right (1,1)
    
        Box 3 is at 
            top left     (4,1)
            bottom right (5,1)
    
        Roll length used: 2

    [1;34mTry max length:[0m 1
    [1;34m    At iteration:[0m 3
        lingeling found a solution in .016 ms

      | W
    L | 0 1 2 3 4 5 6 
    ------------------
    0 | 2 2 1 1 . 3 3 
    
    Boxes' corners:      (w,l)
        Box 1 is at 
            top left     (2,0)
            bottom right (3,0)
    
        Box 2 is at 
            top left     (0,0)
            bottom right (1,0)
    
        Box 3 is at 
            top left     (5,0)
            bottom right (6,0)
    
        Roll length used: 1

    [1;34mTry max length:[0m 0
    [1;34m    At iteration:[0m 4
        [3;31mlingeling determined unsatisfiability of the Boolean formula[0m
        [1;32mOptimality reached![0m
