scripts/logs/LP-i7-4/bwp_7_3_1.LP.log.out
Sun 20 May 09:16:43 CEST 2018
CPXPARAM_TimeLimit                               45
CPXPARAM_Threads                                 4
CPXPARAM_MIP_Strategy_CallbackReducedLP          0
Tried aggregator 3 times.
MIP Presolve eliminated 111 rows and 99 columns.
MIP Presolve modified 435 coefficients.
Aggregator did 826 substitutions.
Reduced MIP has 1580 rows, 1317 columns, and 3563 nonzeros.
Reduced MIP has 1100 binaries, 4 generals, 0 SOSs, and 174 indicators.
Presolve time = 0.01 sec. (8.76 ticks)
Found incumbent of value 6.000000 after 0.02 sec. (12.67 ticks)
Probing time = 0.02 sec. (12.56 ticks)
Tried aggregator 2 times.
Aggregator did 631 substitutions.
Reduced MIP has 949 rows, 686 columns, and 2301 nonzeros.
Reduced MIP has 469 binaries, 217 generals, 0 SOSs, and 174 indicators.
Presolve time = 0.00 sec. (3.04 ticks)
Probing time = 0.01 sec. (4.95 ticks)
Tried aggregator 1 time.
Reduced MIP has 949 rows, 686 columns, and 2301 nonzeros.
Reduced MIP has 469 binaries, 217 generals, 0 SOSs, and 174 indicators.
Presolve time = 0.00 sec. (2.06 ticks)
Probing time = 0.00 sec. (2.66 ticks)
Clique table members: 3766.
MIP emphasis: balance optimality and feasibility.
MIP search method: dynamic search.
Parallel mode: deterministic, using up to 4 threads.
Root relaxation solution time = 0.00 sec. (1.47 ticks)

        Nodes                                         Cuts/
   Node  Left     Objective  IInf  Best Integer    Best Bound    ItCnt     Gap

*     0+    0                            6.0000        0.0000           100.00%
      0     0        0.0000   189        6.0000        0.0000       21  100.00%
*     0+    0                            1.0000        0.0000           100.00%
      0     0        cutoff              1.0000        1.0000       21    0.00%
Elapsed time = 0.12 sec. (90.89 ticks, tree = 0.01 MB, solutions = 2)

Root node processing (before b&c):
  Real time             =    0.12 sec. (90.96 ticks)
Parallel b&c, 4 threads:
  Real time             =    0.00 sec. (0.00 ticks)
  Sync time (average)   =    0.00 sec.
  Wait time (average)   =    0.00 sec.
                          ------------
Total (root+branch&cut) =    0.12 sec. (90.96 ticks)
  | W
L | 0 1 2 3 4 5 6 
------------------
0 | 3 3 2 2 1 1 . 
1 | . . . . . . . 
2 | . . . . . . . 
3 | . . . . . . . 
4 | . . . . . . . 
5 | . . . . . . . 

Boxes' corners:      (w,l)
    Box 1 is at 
        top left     (4,0)
        bottom right (5,0)

    Box 2 is at 
        top left     (2,0)
        bottom right (3,0)

    Box 3 is at 
        top left     (0,0)
        bottom right (1,0)

    Roll length used: 1
In 0.24 seconds
